 $CONTRL SCFTYP=RHF RUNTYP=GRADIENT DFTTYP=Blyp MAXIT=70 MULT=1 $END
 $SYSTEM MWORDS=50 MEMDDI=800 $END
 $BASIS GBASIS=TZV NDFUNC=2 NPFUNC=2 $END
 $DFT DC=.T. NRAD=96 NLEB=1202 NRAD0=96 NLEB0=302 $END
 $SCF DIRSCF=.TRUE. $END
 $DATA
ethben.test
C1
 C     6.0     0.00000     0.00000    -0.65898
 C     6.0     0.00000     0.00000     0.66089
 H     1.0    -0.93055     0.00000    -1.23308
 H     1.0     0.93054     0.00530    -1.23307
 H     1.0    -0.93056    -0.00045     1.23500
 H     1.0     0.93055     0.00517     1.23499
 H     1.0     0.00018     2.97547    -0.38280
 H     1.0     0.00019     2.97341     0.38257
 $END

 
