 $CONTRL SCFTYP=RHF MPLEVL=2 RUNTYP=GRADIENT $END
 $SYSTEM MWORDS=70 MEMDDI=800 $END
 $CONTRL AIMPAC=.T. MOLPLT=.TRUE. PLTORB=.TRUE. $END
 $SCF DIRSCF=.TRUE. $END
 $BASIS GBASIS=DZV NDFUNC=2 NPFUNC=1 $END
 $GUESS GUESS=HUCKEL $END
 $DATA
Corannulene BOWL
Dnh  5

 H    1.0   4.1583317651   1.5372683956   0.0000000000
 C    6.0   1.1872344828   0.0000000000   0.0000000000
 C    6.0   2.5630188351   0.0000000000   0.0000000000
 C    6.0   3.0842606857   1.3635429526   0.0000000000
 $END
