 $CONTRL SCFTYP=RHF RUNTYP=GRADIENT DFTTYP=B97D MAXIT=50 $END                   
 $SYSTEM MWORDS=25 MEMDDI=1400 $END                                          
 $DFT DC=.T. NRAD=96 NLEB=1202 NRAD0=96 NLEB0=302 $END
 $SCF DIRSCF=.T. $END
 $STATPT NSTEP=300 $END                                                         
 $BASIS GBASIS=TZV NDFUNC=2 NPFUNC=2 $END                              
 $DATA                                                                          
 dAMP uncharged/hydrogenated B97D/TZV(2d,2p), 
C1                                                                              
 P          15.0  -3.8638003674   1.2223978986  -0.0851686108
 O           8.0  -2.5230080778   1.8778090795   0.5910226560
 O           8.0  -3.2690039235   0.2225027527  -1.2104763427
 C           6.0  -1.8760478349  -0.0190342139  -1.4927173422
 C           6.0  -1.4267165874  -1.3131319744  -0.8099505963
 O           8.0  -0.0715462580  -1.5891684053  -1.2086463551
 C           6.0  -1.4466719524  -1.2829633805   0.7387358288
 O           8.0  -2.6465922928  -1.8254226403   1.3178893262
 C           6.0  -0.1626034425  -2.0355651602   1.1107805132
 C           6.0   0.7763548548  -1.7217808846  -0.0589644702
 N           7.0   1.5907931928  -0.5241333064   0.1426698782
 C           6.0   1.1989029007   0.7677365972   0.4721188549
 N           7.0   2.1903315064   1.6293204895   0.5057429339
 C           6.0   3.3044560302   0.8751143709   0.1788883861
 C           6.0   4.6727363084   1.1960870236   0.0391014577
 N           7.0   5.1491348415   2.4457402463   0.2778874090
 N           7.0   5.5360814641   0.2230910260  -0.3135623077
 C           6.0   5.0541490238  -1.0181045133  -0.5059374890
 N           7.0   3.7896754760  -1.4553165419  -0.3995310596
 C           6.0   2.9614461035  -0.4606972388  -0.0589489496
 H           1.0   6.0931760619   2.6506989705  -0.0086409378
 H           1.0   4.4894683566   3.2022138229   0.3600853909
 H           1.0  -2.8399246474  -2.6682328321   0.8865909713
 O           8.0  -4.8191508150   2.2250868972  -0.5751840443
 O           8.0  -4.4478731482   0.2404881220   1.0225605105
 H           1.0  -1.7910992457  -0.1263043126  -2.5771741635
 H           1.0  -1.2513250447   0.8164085165  -1.1664999860
 H           1.0  -2.0691865102  -2.1389231619  -1.1550396418
 H           1.0  -1.4192033223  -0.2581566186   1.1098975672
 H           1.0  -0.3661242741  -3.1121132646   1.1166458000
 H           1.0   0.2481444650  -1.7468489738   2.0795209482
 H           1.0   1.4930645539  -2.5192972094  -0.2638899742
 H           1.0   0.1651267122   1.0166180304   0.6667781798
 H           1.0   5.7931023174  -1.7660337775  -0.7871837945
 H           1.0  -3.8884792059  -0.5606492008   1.1563807778
 H           1.0  -2.6077996148   2.8398027538   0.5590147502
 $END
