 $CONTRL RUNTYP=GRADIENT SCFTYP=RHF DFTTYP=B97D MAXIT=50 $END
 $DFT DC=.T. NRAD=96 NLEB=1202 NRAD0=96 NLEB0=302 $END
 $BASIS GBASIS=TZV NDFUNC=2 NPFUNC=2 $END
 $CONTRL ICUT=20 ITOL=30 $END
 $SCF DIRSCF=.T. CONV=1d-6 $END
 $SYSTEM MWORDS=20 MEMDDI=700 $END
 $STATPT NSTEP=300 $END
 $DATA 
G=C h-bonded, no symmetry, B97D/TZV(2d,2p), RMSgrad problem, tightened
C1
 C           6.0  -2.9855044579  -0.8807099115  -0.0156700085
 C           6.0  -1.5581395053  -0.9829690874   0.0107562953
 N           7.0  -0.9515195638   0.2926744254   0.0619971212
 C           6.0  -1.6157273573   1.4985339317   0.0922023302
 C           6.0  -3.5494739096   0.4047115788   0.0063714556
 N           7.0  -3.9685713250  -1.8558655159  -0.0636596651
 C           6.0  -5.0945516837  -1.1870092670  -0.0718501955
 N           7.0  -4.9061381281   0.1895315362  -0.0323621828
 O           8.0  -0.8535155490  -2.0066560666  -0.0069777733
 N           7.0  -0.8485899221   2.6104334261   0.1939610581
 H           1.0  -5.6113378605   0.9095732683  -0.0258638639
 H           1.0   0.8620084647  -1.9798954279   0.0639832137
 H           1.0   2.3808759205  -2.8882339217   0.0829318624
 H           1.0   0.1651137536   2.5761485355   0.0601389013
 N           7.0  -2.9395342563   1.6053759247   0.0571712791
 H           1.0  -6.0864194517  -1.6191884773  -0.1044818882
 C           6.0   4.0627565465  -0.9224102013  -0.0126412026
 C           6.0   4.7215122354   0.2644555046  -0.0791944465
 C           6.0   2.6055798221   1.4785252105  -0.0712187836
 N           7.0   1.9503432770   0.2902936020  -0.0019556593
 C           6.0   2.6203970641  -0.8733320830   0.0229980383
 O           8.0   2.0545828796   2.5841068953  -0.1049410053
 N           7.0   1.9051468367  -2.0017689978   0.0846250325
 N           7.0   4.0240602194   1.4337533660  -0.1079521760
 H           1.0   4.5991085441  -1.8626371773   0.0092132643
 H           1.0   5.8030477148   0.3424306397  -0.1134021108
 H           1.0   0.0856921544   0.3019783992   0.0617175432
 H           1.0   4.4959903676   2.3243369393  -0.1589038055
 H           1.0  -1.3253328305   3.4890929509   0.0800073713
 $END
