 $CONTRL SCFTYP=RHF RUNTYP=GRADIENT DFTTYP=Blyp MAXIT=70 MULT=1 $END
 $SYSTEM MWORDS=50 MEMDDI=1600 $END
 $BASIS GBASIS=TZV NDFUNC=2 NPFUNC=2 $END
 $DFT DC=.T. NRAD=96 NLEB=1202 DCPAR=1.2 NRAD0=96 NLEB0=302 $END
 $SCF DIRSCF=.TRUE. $END
 $DATA 
 g-quadruplex BLYP-D/TZV(2d,2p) no symmetry
C1
 C           6.0   0.6359934881  -5.1076734690   0.0000000000
 C           6.0   5.1076715496   0.6359933734   0.0000000000
 C           6.0  -0.6359926220   5.1076739816   0.0000000000
 C           6.0  -5.1076724307  -0.6359934476   0.0000000000
 C           6.0   0.3455938657  -3.7067638132   0.0000000000
 C           6.0   3.7067619497   0.3455932647   0.0000000000
 C           6.0  -0.3455937847   3.7067641002   0.0000000000
 C           6.0  -3.7067628567  -0.3455931675   0.0000000000
 N           7.0  -1.0457228698  -3.4630855659   0.0000000000
 N           7.0   3.4630850863  -1.0457237877   0.0000000000
 N           7.0   1.0457228774   3.4630859548   0.0000000000
 N           7.0  -3.4630861258   1.0457238488   0.0000000000
 C           6.0  -2.0328011047  -4.4444019738   0.0000000000
 C           6.0   4.4444017566  -2.0328016960   0.0000000000
 C           6.0   2.0328018530   4.4444015168   0.0000000000
 C           6.0  -4.4444026091   2.0328021118   0.0000000000
 C           6.0  -0.4378281464  -6.0134266183   0.0000000000
 C           6.0   6.0134252029  -0.4378278535   0.0000000000
 C           6.0   0.4378294777   6.0134266024   0.0000000000
 C           6.0  -6.0134259967   0.4378278563   0.0000000000
 N           7.0   1.8593163773  -5.7726598519   0.0000000000
 N           7.0   5.7726575514   1.8593165062   0.0000000000
 N           7.0  -1.8593150059   5.7726613235   0.0000000000
 N           7.0  -5.7726584903  -1.8593166331   0.0000000000
 C           6.0   1.5400241678  -7.0507552308   0.0000000000
 C           6.0   7.0507529746   1.5400246497   0.0000000000
 C           6.0  -1.5400220533   7.0507564704   0.0000000000
 C           6.0  -7.0507539712  -1.5400244254   0.0000000000
 N           7.0   0.1599894303  -7.2599009700   0.0000000000
 N           7.0   7.2598993845   0.1599899728   0.0000000000
 N           7.0  -0.1599871448   7.2599013406   0.0000000000
 N           7.0  -7.2599001700  -0.1599898341   0.0000000000
 O           8.0   1.1556395339  -2.7568219828   0.0000000000
 O           8.0   2.7568199198   1.1556386604   0.0000000000
 O           8.0  -1.1556410934   2.7568237857   0.0000000000
 O           8.0  -2.7568214194  -1.1556394230   0.0000000000
 N           7.0  -3.3105606790  -4.0098031530   0.0000000000
 N           7.0   4.0098029385  -3.3105611391   0.0000000000
 N           7.0   3.3105610586   4.0098020752   0.0000000000
 N           7.0  -4.0098032523   3.3105613865   0.0000000000
 N           7.0  -1.7628299977  -5.7543022148   0.0000000000
 N           7.0   5.7543018306  -1.7628298478   0.0000000000
 N           7.0   1.7628311956   5.7543018657   0.0000000000
 N           7.0  -5.7543025524   1.7628298109   0.0000000000
 H           1.0  -0.3296371463  -8.1461720189   0.0000000000
 H           1.0   8.1461706833  -0.3296361148   0.0000000000
 H           1.0   0.3296394727   8.1461723708   0.0000000000
 H           1.0  -8.1461718167   0.3296355320   0.0000000000
 H           1.0  -3.5257751345  -3.0121412451   0.0000000000
 H           1.0   3.0121411166  -3.5257759104   0.0000000000
 H           1.0   3.5257742644   3.0121398764   0.0000000000
 H           1.0  -3.0121413885   3.5257757855   0.0000000000
 H           1.0   2.2384945245  -7.8790079526   0.0000000000
 H           1.0   7.8790056306   2.2384950350   0.0000000000
 H           1.0  -2.2384923747   7.8790092361   0.0000000000
 H           1.0  -7.8790047991  -2.2384970867   0.0000000000
 H           1.0  -1.3479520823  -2.4833836242   0.0000000000
 H           1.0   2.4833830733  -1.3479526418   0.0000000000
 H           1.0   1.3479509297   2.4833836491   0.0000000000
 H           1.0  -2.4833839689   1.3479523351   0.0000000000
 H           1.0  -4.0532396709  -4.6928712407   0.0000000000
 H           1.0   4.6928714224  -4.0532397963   0.0000000000
 H           1.0   4.0532403699   4.6928697488   0.0000000000
 H           1.0  -4.6928721991   4.0532397027   0.0000000000
 $END
