 $CONTRL RUNTYP=GRADIENT SCFTYP=RHF MPLEVL=2 MAXIT=200 
 ICUT=20 ITOL=30 $END
 $BASIS GBASIS=N311 NGAUSS=6 NDFUNC=2 NPFUNC=1 DIFFSP=.TRUE. $END
 $SYSTEM MWORDS=20 MEMDDI=450 PARALL=.TRUE. $END
 $STATPT NSTEP=200 $END
 $SCF DIRSCF=.TRUE. CONV=1D-07 FDIFF=.FALSE. $END
 $DATA
iso G imino base MP2/6-311G+(2d,p)
 C1
 C           6.0   0.8243093429   0.4567312273  -0.0180154725
 N           7.0   2.1861648569   0.6578230084  -0.0247027715
 C           6.0   2.7042683127  -0.5550723188  -0.0134730713
 N           7.0   1.7308614086  -1.5378069573   0.0051787944
 C           6.0   0.5310632411  -0.8866914546  -0.0047432298
 C           6.0  -0.2426104159   1.4322989195   0.0041083441
 N           7.0  -1.5060055941   0.8078349225   0.0486280992
 C           6.0  -1.8321827997  -0.5324635470   0.0101544630
 N           7.0  -0.7411464255  -1.4051518706   0.0727221224
 H           1.0  -0.9609960885  -2.3660397912  -0.1535173528
 H           1.0   1.8875719315  -2.5361923948   0.0276887089
 H           1.0  -2.3057254900   1.4321758563   0.0317560603
 O           8.0  -2.9779138131  -0.9456083077  -0.0521069527
 H           1.0   3.7562018877  -0.7975140668  -0.0258319665
 H           1.0   0.7838986164   3.0014862006  -0.0382627967
 N           7.0  -0.1962569369   2.7117138189  -0.0067176726
 $END
