 $CONTRL SCFTYP=RHF MPLEVL=2 RUNTYP=GRADIENT $END
 $SYSTEM MWORDS=70 MEMDDI=800 $END
 $CONTRL AIMPAC=.T. MOLPLT=.TRUE. PLTORB=.TRUE. $END
 $SCF DIRSCF=.TRUE. $END
 $BASIS GBASIS=TZV NDFUNC=2 NPFUNC=2 DIFFS=.t. $END
 $GUESS GUESS=HUCKEL $END
 $DATA
corannulene flat
C1
 H    1.0  -0.1820094826   4.4109229456   0.0000000000
 H    1.0  -4.2512810336   1.1899488466   0.0000000000
 H    1.0  -2.4454266919  -3.6754941135   0.0000000000
 H    1.0   2.7399242210  -3.4615291342   0.0000000000
 H    1.0   4.1387929871  -1.5361514555   0.0000000000
 H    1.0   2.7399242210   3.4615291342   0.0000000000
 H    1.0  -2.4454266919   3.6754941135   0.0000000000
 H    1.0  -4.2512810336  -1.1899488466   0.0000000000
 H    1.0  -0.1820094826  -4.4109229456   0.0000000000
 H    1.0   4.1387929871   1.5361514555   0.0000000000
 C    6.0   0.3658159460   1.1258657146   0.0000000000
 C    6.0  -0.9577185802   0.6958232784   0.0000000000
 C    6.0  -0.9577185802  -0.6958232784   0.0000000000
 C    6.0   0.3658159460  -1.1258657146   0.0000000000
 C    6.0   1.1838052685   0.0000000000   0.0000000000
 C    6.0   0.7889231190   2.4280556955   0.0000000000
 C    6.0  -2.0654275401   1.5006209464   0.0000000000
 C    6.0  -2.0654275401  -1.5006209464   0.0000000000
 C    6.0   0.7889231190  -2.4280556955   0.0000000000
 C    6.0   2.5530088422   0.0000000000   0.0000000000
 C    6.0  -0.3440802648   3.3406268048   0.0000000000
 C    6.0  -3.2834515404   0.7050706766   0.0000000000
 C    6.0  -1.6852043876  -2.9048691622   0.0000000000
 C    6.0   2.2419379509  -2.5003785517   0.0000000000
 C    6.0   3.0707982419  -1.3595502325   0.0000000000
 C    6.0   2.2419379509   2.5003785517   0.0000000000
 C    6.0  -1.6852043876   2.9048691622   0.0000000000
 C    6.0  -3.2834515404  -0.7050706766   0.0000000000
 C    6.0  -0.3440802648  -3.3406268048   0.0000000000
 C    6.0   3.0707982419   1.3595502325   0.0000000000
 $END
