 $CONTRL SCFTYP=RHF RUNTYP=OPTIMIZE $END
 $BASIS GBASIS=STO NGAUSS=3 $END
 $STATPT HESS=CALC HSSEND=.TRUE. IHREP=3 METHOD=RFO $END
 $STATPT NSTEP=200 $END
 $DATA 
Title
C1
C     6.0    -0.90069     0.08640    -0.02105
C     6.0     0.30978    -0.26193     0.00975
H     1.0    -0.12791     1.22400     0.34203
H     1.0     0.36457     0.99605     0.50248
H     1.0    -1.47569    -0.23619     0.77884
H     1.0     0.52590    -0.72275     0.94353
H     1.0    -1.28608     0.40565    -0.86533
F     9.0     1.13257    -0.17493    -1.03906
 $END


