$CONTRL SCFTYP=RHF RUNTYP=ENERGY $END
 $BASIS GBASIS=STO NGAUSS=3 $END
 $GUESS GUESS=HUCKEL $END
 $DATA
Water
C1
C  6.0  0.74835606  0.80894115  -0.21520822
O  8.0  -0.31871169  1.21052236   0.15447026
O  8.0  1.69400196  -1.75236985  -0.52966619
O  8.0  1.88159509  0.79641579   1.56390232
H  1.0  -0.98578913  0.90210842  -1.18602226
H  1.0  0.15004729  -1.05222799  -0.25403136
$END

