 $CONTRL SCFTYP=RHF RUNTYP=GRADIENT DFTTYP=Blyp MAXIT=70 MULT=1 $END
 $SYSTEM MWORDS=50 MEMDDI=800 $END
 $BASIS GBASIS=TZV NDFUNC=2 NPFUNC=2 $END
 $DFT DC=.T. NRAD=96 NLEB=1202 NRAD0=96 NLEB0=302 $END
 $SCF DIRSCF=.TRUE. $END
 $DATA
ethben.test
C1
 C     6.0     0.00000     0.00000    -0.65898
 C     6.0     0.00000     0.00000     0.85341
 H     1.0    -1.02265     0.00000    -1.06499
 H     1.0     0.49077    -0.90171    -1.05696
 H     1.0    -0.71216    -0.73496     1.25819
 H     1.0     0.99194    -0.24884     1.25943
 H     1.0     0.53214     0.86928    -1.07211
 H     1.0    -0.28315     0.98328     1.26048
 $END

