
     $CONTRL SCFTYP=RHF RUNTYP=ENERGY $END
     $BASIS GBASIS=STO NGAUSS=3 $END
     $DATA 
    Title
    C1
    C  6.0  1.00000000  1.00000000   1.00000000
O  8.0  2.00000000  2.00000000   2.00000000
O  8.0  3.00000000  3.00000000   3.00000000
O  8.0  4.00000000  4.00000000   4.00000000
H  1.0  5.00000000  5.00000000   5.00000000
H  1.0  6.00000000  6.00000000   6.00000000
$END