 $CONTRL SCFTYP=RHF RUNTYP=GRADIENT DFTTYP=B97D MAXIT=50 $END
 $SYSTEM MWORDS=20 MEMDDI=700 $END
 $DFT DC=.T. NRAD=96 NLEB=1202 NRAD0=96 NLEB0=302 $END
 $SCF DIRSCF=.T. $END
 $STATPT NSTEP=150 $END
 $BASIS GBASIS=TZV NDFUNC=2 NPFUNC=2 $END
 $DATA
dGMP two hydrogens, neutral,  B97D/TZV(2d,2p)
C1                                                                              
 P          15.0  -3.7740287982   0.7477796569   0.3423662424
 O           8.0  -5.2793798955   0.2192796048   0.1835881548
 O           8.0  -3.0408619702  -0.0062294321  -0.8676252559
 C           6.0  -1.5871358936   0.0800669995  -0.9584828816
 C           6.0  -0.9869101264  -1.3203921712  -0.8216221064
 O           8.0   0.4181433676  -1.2096060714  -1.1383797214
 C           6.0  -1.0845608177  -1.8914407449   0.6016991531
 O           8.0  -1.1519157491  -3.3212973214   0.4831740003
 C           6.0   0.2387577945  -1.4198300698   1.2164363361
 C           6.0   1.2031561164  -1.5199420201   0.0286809375
 N           7.0   2.3426130524  -0.5983731810   0.0919783401
 C           6.0   3.6450571269  -1.1253348777   0.1678890050
 O           8.0   3.9015281765  -2.3177340736   0.2058345865
 N           7.0   4.6264816893  -0.1428664350   0.2107150827
 C           6.0   4.4792847176   1.2625784230   0.1964618367
 O           8.0   5.4625817560   1.9895405126   0.2477347173
 C           6.0   3.0873317097   1.7069586685   0.1162731258
 C           6.0   2.8053729352   3.1815242219   0.0795623835
 C           6.0   2.1151084454   0.7652922411   0.0672731971
 H           1.0   5.5749098896  -0.4915007027   0.2685998500
 H           1.0  -1.2601986854  -3.6786328063   1.3719360624
 O           8.0  -3.2320853660   0.5736006363   1.7016059186
 O           8.0  -3.7703360807   2.2840550312  -0.1843335111
 H           1.0  -1.1880537428   0.7404467477  -0.1801384695
 H           1.0  -1.3463569455   0.4958061215  -1.9399817991
 H           1.0  -1.4602709470  -2.0007726466  -1.5369623839
 H           1.0  -1.9530433222  -1.4964393610   1.1377989393
 H           1.0   0.1458922284  -0.3814045346   1.5522770088
 H           1.0   0.5603014813  -2.0337910955   2.0612899494
 H           1.0   1.6214277261  -2.5226702364  -0.0642114530
 H           1.0   1.7291796668   3.3713265705   0.0137226200
 H           1.0   3.2001200574   3.6726349683   0.9765528465
 H           1.0   3.3033703657   3.6477638077  -0.7783846374
 H           1.0   1.0706929271   1.0407356768  -0.0181688614
 H           1.0  -3.8070904457   2.8864382071   0.5710343489
 H           1.0  -5.6243445274   0.3493606793  -0.7103520858
 $END
