 $CONTRL SCFTYP=RHF RUNTYP=OPTIMIZE $END
 $BASIS GBASIS=STO NGAUSS=3 $END
 $STATPT HESS=CALC HSSEND=.TRUE. IHREP=3 METHOD=RFO $END
 $STATPT NSTEP=200 $END
 $DATA 
Title
C1
C     6.0    -0.18342    -0.17251    -0.02915
O     8.0    -0.02862     0.86925    -0.78911
H     1.0     0.37333    -0.15531     0.99143
H     1.0    -0.33364     0.84392    -1.67255
 $END


