 $CONTRL SCFTYP=RHF RUNTYP=OPTIMIZE $END
 $BASIS GBASIS=STO NGAUSS=3 $END
 $STATPT HESS=CALC HSSEND=.TRUE. IHREP=3 METHOD=RFO $END
 $STATPT NSTEP=200 $END
 $DATA 
Title
C1
C     6.0    -1.03057     0.08660     0.00000
C     6.0     0.30978    -0.26193     0.00975
H     1.0    -1.16509     1.05283     0.47794
H     1.0     1.03038     0.63771     0.36816
H     1.0    -1.84171    -0.21275     0.41330
H     1.0     0.42462    -1.28176     0.32832
H     1.0    -1.46054     0.17460    -0.80654
F     9.0     1.17972    -0.12093    -1.16207
 $END


