 $CONTRL SCFTYP=UHF DFTTYP=B3LYP RUNTYP=HESSIAN $END
 $SYSTEM MEMDDI=1 PARALL=.TRUE. $END
 $BASIS  GBASIS=N31 NGAUSS=6 NDFUNC=1 NPFUNC=1 $END
 $DFT NLEB=1202 NRAD=96 NRAD0=96 NLEB0=302 $END 
 $GUESS  GUESS=HUCKEL $END
 $DATA
Water
C1
O     8.0    0.0002697023 -0.0259633383 -0.1211994507
H     1.0    0.0021917288 0.9061204938 1.112849349
H     1.0    0.0015163678 -0.5313366649 0.8045928847
 $END

