 $CONTRL SCFTYP=RHF RUNTYP=OPTIMIZE $END
 $BASIS GBASIS=STO NGAUSS=3 $END
 $STATPT HESS=CALC HSSEND=.TRUE. IHREP=3 METHOD=RFO $END
 $STATPT NSTEP=200 $END
 $DATA 
Title
C1
C     6.0    -0.89911     0.05728    -0.00132
C     6.0     0.30978    -0.26193     0.00975
H     1.0    -1.40164     0.98086     0.40606
H     1.0     1.16127     0.50208     0.32298
H     1.0    -1.72893    -0.47223    -0.14469
H     1.0     0.65393    -1.25561    -0.14778
H     1.0    -0.47501     0.03713    -1.53881
F     9.0     0.62084     0.14213    -1.68552
 $END


